
Gurobi 10.0.1 (linux64) logging started Sun Nov 26 17:15:02 2023

Set parameter LogFile to value "ArtificialInstance/ExperimentV2/S4T5K3/AdSp/gurobiDoSp61.txt"
Gurobi Optimizer version 10.0.1 build v10.0.1rc0 (linux64)

CPU model: AMD EPYC 7H12 64-Core Processor, instruction set [SSE2|AVX|AVX2]
Thread count: 128 physical cores, 128 logical processors, using up to 32 threads

Academic license 656792 - for non-commercial use only - registered to b.___@student.vu.nl
Optimize a model with 27250 rows, 25230 columns and 97814 nonzeros
Model fingerprint: 0xe3325f00
Variable types: 0 continuous, 25230 integer (25230 binary)
Coefficient statistics:
  Matrix range     [1e+00, 1e+00]
  Objective range  [9e-01, 2e+01]
  Bounds range     [1e+00, 1e+00]
  RHS range        [1e+00, 1e+00]
Presolve removed 23467 rows and 21791 columns
Presolve time: 0.46s
Presolved: 3783 rows, 3439 columns, 13537 nonzeros
Variable types: 0 continuous, 3439 integer (3439 binary)

Root relaxation: objective 9.588634e+01, 1161 iterations, 0.03 seconds (0.03 work units)

    Nodes    |    Current Node    |     Objective Bounds      |     Work
 Expl Unexpl |  Obj  Depth IntInf | Incumbent    BestBd   Gap | It/Node Time

*    0     0               0      95.8863412   95.88634  0.00%     -    0s

Explored 1 nodes (1161 simplex iterations) in 0.53 seconds (0.38 work units)
Thread count was 32 (of 128 available processors)

Solution count 1: 95.8863 

Optimal solution found (tolerance 1.00e-04)
Best objective 9.588634123174e+01, best bound 9.588634123174e+01, gap 0.0000%
